data/solutions/recovery/degenerate/intermediate/flexible/degenerate_intermediate_instance23/28.sol
Elapsed time: 100.09
Upper bound: 226531412.0
Planning weighted value: 8.93296524481e+11
C[0]=226531412.0
C[1]=226528680.0
C[2]=226018959.0
C[3]=225861724.0
C[4]=225774308.0
C[5]=225624814.0
C[6]=225601221.0
C[7]=225383052.0
C[8]=225244876.0
C[9]=225206222.0
C[10]=224630632.0
C[11]=0.0
y[0]=0
y[1]=6
y[2]=1
y[3]=5
y[4]=5
y[5]=5
y[6]=9
y[7]=8
y[8]=0
y[9]=7
y[10]=3
y[11]=10
y[12]=4
y[13]=6
y[14]=9
y[15]=7
y[16]=6
y[17]=10
y[18]=0
y[19]=10
y[20]=7
y[21]=0
y[22]=2
y[23]=4
y[24]=2
y[25]=7
y[26]=10
y[27]=2
y[28]=4
y[29]=4
y[30]=3
y[31]=8
y[32]=6
y[33]=4
y[34]=5
y[35]=9
y[36]=6
y[37]=2
y[38]=9
y[39]=7
y[40]=1
y[41]=1
y[42]=10
y[43]=2
y[44]=0
y[45]=8
y[46]=0
y[47]=1
y[48]=3
y[49]=0
y[50]=6
y[51]=7
y[52]=7
y[53]=10
y[54]=6
y[55]=4
y[56]=1
y[57]=5
y[58]=9
y[59]=4
y[60]=3
y[61]=1
y[62]=8
y[63]=8
y[64]=3
y[65]=9
y[66]=0
y[67]=5
y[68]=3
y[69]=1
y[70]=4
y[71]=8
y[72]=2
y[73]=7
y[74]=0
y[75]=6
y[76]=5
y[77]=0
