data/solutions/recovery/degenerate/intermediate/flexible/degenerate_intermediate_instance23/28.log

Log started (V12.6.3.0) Sat Apr 21 15:15:25 2018

New value for default parallel thread count: 1

Problem '/tmp/tmpMH3Gyu.pyomo.lp' read.
Read time = 0.01 sec. (0.85 ticks)

Problem name         : /tmp/tmpMH3Gyu.pyomo.lp
Objective sense      : Minimize
Variables            :     950  [Nneg: 1,  Binary: 936,  General Integer: 13]
Objective nonzeros   :       1
Linear constraints   :     182  [Less: 90,  Equal: 92]
  Nonzeros           :   61117
  RHS nonzeros       :     157

Variables            : Min LB: 0.000000         Max UB: 1.000000       
Objective nonzeros   : Min   : 1.000000         Max   : 1.000000       
Linear constraints   :
  Nonzeros           : Min   : 1.000000         Max   : 6.145599e+07   
  RHS nonzeros       : Min   : 1.000000         Max   : 8.000000       
Tried aggregator 2 times.
MIP Presolve eliminated 81 rows and 140 columns.
Aggregator did 6 substitutions.
Reduced MIP has 95 rows, 804 columns, and 2247 nonzeros.
Reduced MIP has 792 binaries, 12 generals, 0 SOSs, and 0 indicators.
Presolve time = 0.01 sec. (11.05 ticks)
Found incumbent of value 8.2459185e+08 after 0.01 sec. (12.60 ticks)
Probing time = 0.00 sec. (1.59 ticks)
Tried aggregator 1 time.
Reduced MIP has 95 rows, 804 columns, and 2247 nonzeros.
Reduced MIP has 792 binaries, 12 generals, 0 SOSs, and 0 indicators.
Presolve time = 0.00 sec. (1.15 ticks)
Probing time = 0.00 sec. (1.59 ticks)
Clique table members: 72.
MIP emphasis: balance optimality and feasibility.
MIP search method: dynamic search.
Parallel mode: none, using 1 thread.
Root relaxation solution time = 0.00 sec. (1.19 ticks)

        Nodes                                         Cuts/
   Node  Left     Objective  IInf  Best Integer    Best Bound    ItCnt     Gap

*     0+    0                       8.24592e+08        0.0000           100.00%
      0     0   2.25673e+08    29   8.24592e+08   2.25673e+08      117   72.63%
      0     0   2.25673e+08    22   8.24592e+08      Fract: 6      131   72.63%
      0     0   2.25673e+08    20   8.24592e+08      Fract: 6      152   72.63%
*     0+    0                       2.62596e+08   2.25673e+08            14.06%
*     0+    0                       2.42853e+08   2.25673e+08             7.07%
*     0+    0                       2.35868e+08   2.25673e+08             4.32%
      0     2   2.25673e+08    16   2.35868e+08   2.25673e+08      152    4.32%
Elapsed time = 0.06 sec. (60.48 ticks, tree = 0.01 MB, solutions = 4)
*   498+  396                       2.33440e+08   2.25673e+08             3.33%
*   498+  363                       2.31664e+08   2.25673e+08             2.59%
*   501+  244                       2.30721e+08   2.25673e+08             2.19%
    501   245   2.25673e+08    21   2.30721e+08   2.25673e+08     4099    2.19%
    502   246   2.25673e+08    21   2.30721e+08   2.25673e+08     4106    2.19%
    503   247   2.25673e+08    19   2.30721e+08   2.25673e+08     4111    2.19%
    504   248   2.25673e+08    19   2.30721e+08   2.25673e+08     4122    2.19%
    505   248   2.25673e+08    19   2.30721e+08   2.25673e+08     4123    2.19%
    506   249   2.25673e+08    20   2.30721e+08   2.25673e+08     4126    2.19%
    507   249   2.25673e+08    20   2.30721e+08   2.25673e+08     4127    2.19%
    508   249   2.25673e+08    22   2.30721e+08   2.25673e+08     4133    2.19%
    509   250   2.25673e+08    19   2.30721e+08   2.25673e+08     4135    2.19%
*   701+  217                       2.30603e+08   2.25673e+08             2.14%
*   901+  192                       2.30166e+08   2.25673e+08             1.95%
*   901+  191                       2.29851e+08   2.25673e+08             1.82%
*   901+  188                       2.29729e+08   2.25673e+08             1.77%
*  1001+  235                       2.28847e+08   2.25673e+08             1.39%
*  1001+  233                       2.28409e+08   2.25673e+08             1.20%
*  1101+  315                       2.28259e+08   2.25673e+08             1.13%
   1101   317   2.25673e+08    23   2.28259e+08   2.25673e+08     6471    1.13%
Elapsed time = 0.91 sec. (1064.65 ticks, tree = 0.18 MB, solutions = 14)
   3157  2076   2.28138e+08    15   2.28259e+08   2.25673e+08    12344    1.13%
   3158  2077   2.28138e+08    16   2.28259e+08   2.25673e+08    12347    1.13%
   3159  2076        cutoff         2.28259e+08   2.25673e+08    12355    1.13%
   3160  2075    infeasible         2.28259e+08   2.25673e+08    12355    1.13%
   3161  2076   2.25673e+08    22   2.28259e+08   2.25673e+08    12372    1.13%
   3162  2077   2.25673e+08    22   2.28259e+08   2.25673e+08    12374    1.13%
   3163  2078   2.25673e+08    21   2.28259e+08   2.25673e+08    12375    1.13%
   3164  2079   2.25673e+08    21   2.28259e+08   2.25673e+08    12376    1.13%
   3165  2080   2.25673e+08    21   2.28259e+08   2.25673e+08    12378    1.13%
   3166  2081   2.25673e+08    24   2.28259e+08   2.25673e+08    12382    1.13%
Elapsed time = 1.68 sec. (2021.20 ticks, tree = 1.29 MB, solutions = 14)
   7481  5799   2.25673e+08    22   2.28259e+08   2.25673e+08    29202    1.13%
   7482  5800   2.25673e+08    22   2.28259e+08   2.25673e+08    29203    1.13%
   7483  5801   2.25673e+08    20   2.28259e+08   2.25673e+08    29205    1.13%
   7484  5802   2.25673e+08    23   2.28259e+08   2.25673e+08    29214    1.13%
   7485  5803   2.25673e+08    23   2.28259e+08   2.25673e+08    29215    1.13%
   7486  5804   2.25673e+08    22   2.28259e+08   2.25673e+08    29218    1.13%
   7487  5805   2.25673e+08    24   2.28259e+08   2.25673e+08    29222    1.13%
   7488  5806   2.25673e+08    24   2.28259e+08   2.25673e+08    29223    1.13%
   7489  5807   2.25673e+08    23   2.28259e+08   2.25673e+08    29227    1.13%
   7490  5808   2.25673e+08    24   2.28259e+08   2.25673e+08    29233    1.13%
Elapsed time = 2.42 sec. (2976.75 ticks, tree = 3.53 MB, solutions = 14)
  10461  8017    infeasible         2.28259e+08   2.25673e+08    49278    1.13%
  10462  8016        cutoff         2.28259e+08   2.25673e+08    49371    1.13%
  10463  8015        cutoff         2.28259e+08   2.25673e+08    49430    1.13%
  10464  8014        cutoff         2.28259e+08   2.25673e+08    49441    1.13%
  10465  8013        cutoff         2.28259e+08   2.25673e+08    49453    1.13%
  10466  8012        cutoff         2.28259e+08   2.25673e+08    49555    1.13%
  10467  8011        cutoff         2.28259e+08   2.25673e+08    49565    1.13%
  10468  8010        cutoff         2.28259e+08   2.25673e+08    49610    1.13%
  10469  8009        cutoff         2.28259e+08   2.25673e+08    49633    1.13%
  10470  8010   2.25673e+08    18   2.28259e+08   2.25673e+08    49634    1.13%
Elapsed time = 3.40 sec. (4153.12 ticks, tree = 4.84 MB, solutions = 14)
  13418 10176   2.26392e+08    17   2.28259e+08   2.25673e+08    75217    1.13%
  13419 10177   2.26392e+08    17   2.28259e+08   2.25673e+08    75218    1.13%
  13420 10178   2.26392e+08    16   2.28259e+08   2.25673e+08    75220    1.13%
  13421 10179   2.26392e+08    16   2.28259e+08   2.25673e+08    75221    1.13%
  13422 10180   2.26392e+08    12   2.28259e+08   2.25673e+08    75222    1.13%
  13423 10181   2.27025e+08    23   2.28259e+08   2.25673e+08    75254    1.13%
  13424 10182   2.27025e+08    23   2.28259e+08   2.25673e+08    75256    1.13%
  13425 10183   2.27025e+08    22   2.28259e+08   2.25673e+08    75258    1.13%
  13426 10184   2.28138e+08    12   2.28259e+08   2.25673e+08    75268    1.13%
  13427 10183        cutoff         2.28259e+08   2.25673e+08    75272    1.13%
Elapsed time = 4.15 sec. (5111.13 ticks, tree = 6.36 MB, solutions = 14)
  15864 11934   2.25673e+08    16   2.28259e+08   2.25673e+08    95256    1.13%
  15865 11935   2.25673e+08    18   2.28259e+08   2.25673e+08    95257    1.13%
  15866 11936   2.25673e+08    22   2.28259e+08   2.25673e+08    95269    1.13%
  15867 11937   2.25673e+08    19   2.28259e+08   2.25673e+08    95275    1.13%
  15868 11938   2.25673e+08    17   2.28259e+08   2.25673e+08    95277    1.13%
  15869 11939   2.25673e+08    17   2.28259e+08   2.25673e+08    95283    1.13%
  15870 11940   2.25673e+08    18   2.28259e+08   2.25673e+08    95286    1.13%
  15871 11941   2.25673e+08    18   2.28259e+08   2.25673e+08    95288    1.13%
  15872 11942   2.25673e+08    19   2.28259e+08   2.25673e+08    95289    1.13%
  15873 11943   2.25673e+08    21   2.28259e+08   2.25673e+08    95292    1.13%
Elapsed time = 4.91 sec. (6066.31 ticks, tree = 7.37 MB, solutions = 14)
  17437 12913   2.25673e+08    30   2.28259e+08   2.25673e+08   119992    1.13%
  17438 12914   2.25673e+08    27   2.28259e+08   2.25673e+08   120004    1.13%
  17439 12915   2.25673e+08    29   2.28259e+08   2.25673e+08   120012    1.13%
  17440 12916   2.25673e+08    24   2.28259e+08   2.25673e+08   120021    1.13%
  17441 12917   2.25673e+08    27   2.28259e+08   2.25673e+08   120027    1.13%
  17442 12918   2.25673e+08    23   2.28259e+08   2.25673e+08   120033    1.13%
  17443 12919   2.25673e+08    26   2.28259e+08   2.25673e+08   120056    1.13%
  17444 12918        cutoff         2.28259e+08   2.25673e+08   120142    1.13%
  17445 12917        cutoff         2.28259e+08   2.25673e+08   120165    1.13%
  17446 12916    infeasible         2.28259e+08   2.25673e+08   120262    1.13%
Elapsed time = 5.61 sec. (7035.10 ticks, tree = 7.93 MB, solutions = 14)
  18818 13726   2.27245e+08    14   2.28259e+08   2.25673e+08   141964    1.13%
  18819 13727   2.27245e+08    13   2.28259e+08   2.25673e+08   141969    1.13%
  18820 13728   2.27245e+08    13   2.28259e+08   2.25673e+08   141971    1.13%
  18821 13729   2.27245e+08    13   2.28259e+08   2.25673e+08   141983    1.13%
  18822 13730   2.27245e+08    13   2.28259e+08   2.25673e+08   141985    1.13%
  18823 13730   2.27245e+08    23   2.28259e+08   2.25673e+08   141993    1.13%
  18824 13731   2.27245e+08    23   2.28259e+08   2.25673e+08   141994    1.13%
  18825 13732   2.27245e+08    18   2.28259e+08   2.25673e+08   141996    1.13%
  18826 13733   2.27245e+08    15   2.28259e+08   2.25673e+08   141999    1.13%
  18827 13734   2.27245e+08    14   2.28259e+08   2.25673e+08   142020    1.13%
Elapsed time = 6.31 sec. (7991.48 ticks, tree = 8.43 MB, solutions = 14)
  20544 14968   2.25673e+08    19   2.28259e+08   2.25673e+08   164658    1.13%
  20545 14969   2.25673e+08    21   2.28259e+08   2.25673e+08   164666    1.13%
  20546 14970   2.25673e+08    21   2.28259e+08   2.25673e+08   164667    1.13%
  20547 14971   2.25673e+08    19   2.28259e+08   2.25673e+08   164675    1.13%
  20548 14972   2.25673e+08    20   2.28259e+08   2.25673e+08   164683    1.13%
  20549 14973   2.25673e+08    20   2.28259e+08   2.25673e+08   164685    1.13%
  20550 14974   2.25673e+08    20   2.28259e+08   2.25673e+08   164686    1.13%
  20551 14975   2.25673e+08    19   2.28259e+08   2.25673e+08   164687    1.13%
  20552 14976   2.25673e+08    21   2.28259e+08   2.25673e+08   164689    1.13%
  20553 14977   2.25673e+08    20   2.28259e+08   2.25673e+08   164691    1.13%
Elapsed time = 7.04 sec. (8946.65 ticks, tree = 9.18 MB, solutions = 14)
  22337 16281   2.28229e+08    19   2.28259e+08   2.25673e+08   186272    1.13%
  22338 16280        cutoff         2.28259e+08   2.25673e+08   186277    1.13%
  22339 16281   2.25673e+08    18   2.28259e+08   2.25673e+08   186326    1.13%
  22340 16282   2.25673e+08    19   2.28259e+08   2.25673e+08   186332    1.13%
  22341 16283   2.25673e+08    17   2.28259e+08   2.25673e+08   186333    1.13%
  22342 16284   2.25673e+08    20   2.28259e+08   2.25673e+08   186337    1.13%
  22343 16285   2.25673e+08    20   2.28259e+08   2.25673e+08   186338    1.13%
  22344 16286   2.25673e+08    19   2.28259e+08   2.25673e+08   186343    1.13%
  22345 16287   2.25673e+08    20   2.28259e+08   2.25673e+08   186349    1.13%
  27592 20428   2.25673e+08    22   2.28259e+08   2.25673e+08   250194    1.13%
Elapsed time = 9.84 sec. (12761.44 ticks, tree = 12.94 MB, solutions = 14)
  33532 25003   2.28133e+08    36   2.28259e+08   2.25673e+08   328952    1.13%
  33533 25002        cutoff         2.28259e+08   2.25673e+08   328962    1.13%
  33534 25003   2.25673e+08    25   2.28259e+08   2.25673e+08   329011    1.13%
  33535 25004   2.25673e+08    26   2.28259e+08   2.25673e+08   329014    1.13%
  33536 25005   2.25673e+08    24   2.28259e+08   2.25673e+08   329023    1.13%
  33537 25006   2.25673e+08    39   2.28259e+08   2.25673e+08   329083    1.13%
  33538 25007   2.25673e+08    38   2.28259e+08   2.25673e+08   329084    1.13%
  33539 25008   2.25673e+08    26   2.28259e+08   2.25673e+08   329112    1.13%
  33540 25009   2.25673e+08    29   2.28259e+08   2.25673e+08   329144    1.13%
  33541 25010   2.25673e+08    27   2.28259e+08   2.25673e+08   329146    1.13%
Elapsed time = 12.64 sec. (16591.54 ticks, tree = 15.73 MB, solutions = 14)
  37880 28324        cutoff         2.28259e+08   2.25673e+08   401250    1.13%
  37881 28325   2.26399e+08    42   2.28259e+08   2.25673e+08   401251    1.13%
  37882 28326   2.26399e+08    37   2.28259e+08   2.25673e+08   401253    1.13%
  37883 28327   2.26399e+08    41   2.28259e+08   2.25673e+08   401268    1.13%
  37884 28326        cutoff         2.28259e+08   2.25673e+08   401298    1.13%
  37885 28327   2.26399e+08    48   2.28259e+08   2.25673e+08   401342    1.13%
  37886 28328   2.26399e+08    46   2.28259e+08   2.25673e+08   401350    1.13%
  37887 28327        cutoff         2.28259e+08   2.25673e+08   401428    1.13%
  37888 28328   2.26399e+08    34   2.28259e+08   2.25673e+08   401443    1.13%
  37889 28329   2.26399e+08    34   2.28259e+08   2.25673e+08   401456    1.13%
Elapsed time = 15.40 sec. (20417.19 ticks, tree = 17.80 MB, solutions = 14)
  41173 30714   2.25673e+08    32   2.28259e+08   2.25673e+08   469938    1.13%
  41174 30715   2.25673e+08    32   2.28259e+08   2.25673e+08   469948    1.13%
  41175 30716   2.25673e+08    30   2.28259e+08   2.25673e+08   469950    1.13%
  41176 30717   2.25673e+08    29   2.28259e+08   2.25673e+08   469951    1.13%
  41177 30718   2.25777e+08    44   2.28259e+08   2.25673e+08   470099    1.13%
  41178 30719   2.25673e+08    31   2.28259e+08   2.25673e+08   470122    1.13%
  41179 30720   2.25673e+08    29   2.28259e+08   2.25673e+08   470147    1.13%
  41180 30721   2.25673e+08    31   2.28259e+08   2.25673e+08   470149    1.13%
  41181 30722   2.25673e+08    31   2.28259e+08   2.25673e+08   470151    1.13%
  41182 30723   2.25673e+08    30   2.28259e+08   2.25673e+08   470153    1.13%
Elapsed time = 18.17 sec. (24248.24 ticks, tree = 19.30 MB, solutions = 14)
  45974 34627   2.25673e+08    28   2.28259e+08   2.25673e+08   537326    1.13%
  45975 34628   2.25673e+08    28   2.28259e+08   2.25673e+08   537328    1.13%
  45976 34629   2.25673e+08    29   2.28259e+08   2.25673e+08   537332    1.13%
  45977 34630   2.25673e+08    29   2.28259e+08   2.25673e+08   537337    1.13%
  45978 34631   2.25673e+08    29   2.28259e+08   2.25673e+08   537340    1.13%
  45979 34632   2.25673e+08    29   2.28259e+08   2.25673e+08   537341    1.13%
  45980 34633   2.25673e+08    28   2.28259e+08   2.25673e+08   537344    1.13%
  45981 34634   2.25673e+08    32   2.28259e+08   2.25673e+08   537349    1.13%
  45982 34635   2.25673e+08    30   2.28259e+08   2.25673e+08   537350    1.13%
  45983 34636   2.25673e+08    23   2.28259e+08   2.25673e+08   537352    1.13%
Elapsed time = 21.01 sec. (28065.91 ticks, tree = 22.62 MB, solutions = 14)
  52776 40267   2.27566e+08    33   2.28259e+08   2.25673e+08   597081    1.13%
  52777 40267   2.26925e+08    33   2.28259e+08   2.25673e+08   597099    1.13%
  52778 40266        cutoff         2.28259e+08   2.25673e+08   597105    1.13%
  52779 40267   2.25673e+08    27   2.28259e+08   2.25673e+08   597147    1.13%
  52780 40268   2.25673e+08    22   2.28259e+08   2.25673e+08   597194    1.13%
  52781 40269   2.25673e+08    23   2.28259e+08   2.25673e+08   597200    1.13%
  52782 40270   2.25673e+08    24   2.28259e+08   2.25673e+08   597210    1.13%
  52783 40271   2.25673e+08    29   2.28259e+08   2.25673e+08   597322    1.13%
  52784 40272   2.25673e+08    32   2.28259e+08   2.25673e+08   597334    1.13%
  52785 40273   2.25673e+08    27   2.28259e+08   2.25673e+08   597347    1.13%
Elapsed time = 24.46 sec. (31894.29 ticks, tree = 25.98 MB, solutions = 14)
* 54901+41992                       2.28231e+08   2.25673e+08             1.12%
* 57201+43844                       2.28228e+08   2.25673e+08             1.12%
  59056 45455   2.25673e+08    16   2.28228e+08   2.25673e+08   665316    1.12%
  59057 45456   2.25673e+08    17   2.28228e+08   2.25673e+08   665329    1.12%
  59058 45457   2.25673e+08    22   2.28228e+08   2.25673e+08   665337    1.12%
  59059 45458   2.25673e+08    21   2.28228e+08   2.25673e+08   665339    1.12%
  59060 45459   2.27286e+08    25   2.28228e+08   2.25673e+08   665353    1.12%
  59061 45460   2.27286e+08    25   2.28228e+08   2.25673e+08   665354    1.12%
  59062 45461   2.27286e+08    29   2.28228e+08   2.25673e+08   665359    1.12%
  59063 45462   2.27286e+08    29   2.28228e+08   2.25673e+08   665360    1.12%
  59064 45463   2.27286e+08    24   2.28228e+08   2.25673e+08   665373    1.12%
  59065 45464   2.27286e+08    24   2.28228e+08   2.25673e+08   665377    1.12%
Elapsed time = 28.02 sec. (35715.45 ticks, tree = 28.92 MB, solutions = 16)
* 62301+46243                       2.27703e+08   2.25673e+08             0.89%
  64284 47693        cutoff         2.27703e+08   2.25673e+08   733532    0.89%
  64285 47694   2.26369e+08    22   2.27703e+08   2.25673e+08   733694    0.89%
  64286 47695   2.26588e+08    25   2.27703e+08   2.25673e+08   733716    0.89%
  64287 47695   2.26588e+08    26   2.27703e+08   2.25673e+08   733721    0.89%
  64288 47696   2.26588e+08    23   2.27703e+08   2.25673e+08   733722    0.89%
  64289 47697   2.26588e+08    23   2.27703e+08   2.25673e+08   733727    0.89%
  64290 47698   2.26588e+08    22   2.27703e+08   2.25673e+08   733728    0.89%
  64291 47699   2.26588e+08    22   2.27703e+08   2.25673e+08   733732    0.89%
  64292 47700   2.26588e+08    22   2.27703e+08   2.25673e+08   733746    0.89%
  64293 47701   2.26588e+08    23   2.27703e+08   2.25673e+08   733748    0.89%
Elapsed time = 31.48 sec. (39538.95 ticks, tree = 30.11 MB, solutions = 17)
  69304 51311   2.26544e+08    34   2.27703e+08   2.25673e+08   807699    0.89%
  69305 51312   2.26546e+08    37   2.27703e+08   2.25673e+08   807705    0.89%
  69306 51313   2.26546e+08    37   2.27703e+08   2.25673e+08   807707    0.89%
  69307 51314   2.26546e+08    36   2.27703e+08   2.25673e+08   807709    0.89%
  69308 51315   2.26546e+08    36   2.27703e+08   2.25673e+08   807711    0.89%
  69309 51316   2.26546e+08    37   2.27703e+08   2.25673e+08   807713    0.89%
  69310 51317   2.26550e+08    34   2.27703e+08   2.25673e+08   807728    0.89%
  69311 51318   2.26726e+08    32   2.27703e+08   2.25673e+08   807749    0.89%
  69312 51319   2.26726e+08    31   2.27703e+08   2.25673e+08   807753    0.89%
  69313 51319   2.26726e+08    31   2.27703e+08   2.25673e+08   807754    0.89%
Elapsed time = 35.00 sec. (43358.29 ticks, tree = 32.26 MB, solutions = 17)
* 71001+49301                       2.27308e+08   2.25673e+08             0.72%
  73905 51436   2.25673e+08    21   2.27308e+08   2.25673e+08   874702    0.72%
  73906 51437   2.25673e+08    28   2.27308e+08   2.25673e+08   874721    0.72%
  73907 51438   2.25673e+08    20   2.27308e+08   2.25673e+08   874756    0.72%
  73908 51439   2.25673e+08    21   2.27308e+08   2.25673e+08   874785    0.72%
  73909 51440   2.25673e+08    35   2.27308e+08   2.25673e+08   874852    0.72%
  73910 51441   2.25673e+08    18   2.27308e+08   2.25673e+08   874856    0.72%
  73911 51442   2.25673e+08    20   2.27308e+08   2.25673e+08   874872    0.72%
  73912 51443   2.25673e+08    27   2.27308e+08   2.25673e+08   874920    0.72%
  73913 51444   2.25673e+08    33   2.27308e+08   2.25673e+08   874961    0.72%
  73914 51445   2.25673e+08    28   2.27308e+08   2.25673e+08   874971    0.72%
Elapsed time = 38.49 sec. (47184.47 ticks, tree = 32.10 MB, solutions = 18)
  78001 53795   2.25673e+08    23   2.27308e+08   2.25673e+08   950336    0.72%
  78002 53796   2.25673e+08    25   2.27308e+08   2.25673e+08   950350    0.72%
  78003 53797   2.25673e+08    24   2.27308e+08   2.25673e+08   950370    0.72%
  78004 53798   2.25673e+08    27   2.27308e+08   2.25673e+08   950414    0.72%
  78005 53799   2.25673e+08    24   2.27308e+08   2.25673e+08   950418    0.72%
  78006 53800   2.25673e+08    24   2.27308e+08   2.25673e+08   950421    0.72%
  78007 53801   2.25673e+08    22   2.27308e+08   2.25673e+08   950439    0.72%
  78008 53802   2.25673e+08    21   2.27308e+08   2.25673e+08   950440    0.72%
  78009 53803   2.25673e+08    20   2.27308e+08   2.25673e+08   950443    0.72%
  78010 53804   2.25673e+08    21   2.27308e+08   2.25673e+08   950453    0.72%
Elapsed time = 42.04 sec. (51008.67 ticks, tree = 33.51 MB, solutions = 18)
* 80301+54772                       2.27200e+08   2.25673e+08             0.67%
  81625 55678   2.25673e+08    22   2.27200e+08   2.25673e+08  1020715    0.67%
  81626 55679   2.25673e+08    22   2.27200e+08   2.25673e+08  1020723    0.67%
  81627 55680   2.25673e+08    20   2.27200e+08   2.25673e+08  1020739    0.67%
  81628 55681   2.26212e+08    29   2.27200e+08   2.25673e+08  1020856    0.67%
  81629 55682   2.26212e+08    26   2.27200e+08   2.25673e+08  1020859    0.67%
  81630 55683   2.26212e+08    26   2.27200e+08   2.25673e+08  1020861    0.67%
  81631 55683   2.27124e+08    36   2.27200e+08   2.25673e+08  1020907    0.67%
  81632 55682        cutoff         2.27200e+08   2.25673e+08  1020909    0.67%
  81633 55683   2.25673e+08    33   2.27200e+08   2.25673e+08  1021006    0.67%
  81634 55684   2.25673e+08    28   2.27200e+08   2.25673e+08  1021015    0.67%
Elapsed time = 45.57 sec. (54835.50 ticks, tree = 34.59 MB, solutions = 19)
  87251 59808   2.25673e+08    18   2.27200e+08   2.25673e+08  1092220    0.67%
  87252 59809   2.25673e+08    18   2.27200e+08   2.25673e+08  1092221    0.67%
  87253 59810   2.25673e+08    19   2.27200e+08   2.25673e+08  1092230    0.67%
  87254 59811   2.25673e+08    19   2.27200e+08   2.25673e+08  1092236    0.67%
  87255 59812   2.25673e+08    19   2.27200e+08   2.25673e+08  1092241    0.67%
  87256 59813   2.25673e+08    22   2.27200e+08   2.25673e+08  1092253    0.67%
  87257 59814   2.25673e+08    22   2.27200e+08   2.25673e+08  1092264    0.67%
  87258 59815   2.25673e+08    23   2.27200e+08   2.25673e+08  1092267    0.67%
  87259 59816   2.25673e+08    23   2.27200e+08   2.25673e+08  1092274    0.67%
  87260 59817   2.25673e+08    23   2.27200e+08   2.25673e+08  1092276    0.67%
Elapsed time = 49.06 sec. (58654.59 ticks, tree = 36.96 MB, solutions = 19)
  93439 65019   2.25673e+08    36   2.27200e+08   2.25673e+08  1151775    0.67%
  93440 65020   2.25673e+08    35   2.27200e+08   2.25673e+08  1151779    0.67%
  93441 65021   2.25673e+08    33   2.27200e+08   2.25673e+08  1151781    0.67%
  93442 65022   2.25673e+08    33   2.27200e+08   2.25673e+08  1151782    0.67%
  93443 65023   2.25673e+08    26   2.27200e+08   2.25673e+08  1151811    0.67%
  93444 65024   2.25673e+08    25   2.27200e+08   2.25673e+08  1151816    0.67%
  93445 65024   2.25689e+08    40   2.27200e+08   2.25673e+08  1151844    0.67%
  93446 65025   2.25694e+08    32   2.27200e+08   2.25673e+08  1151848    0.67%
  93447 65026   2.25694e+08    40   2.27200e+08   2.25673e+08  1151850    0.67%
  93448 65027   2.25694e+08    40   2.27200e+08   2.25673e+08  1151851    0.67%
Elapsed time = 52.43 sec. (62475.20 ticks, tree = 39.92 MB, solutions = 19)
  98628 68947   2.25673e+08    25   2.27200e+08   2.25673e+08  1219790    0.67%
  98629 68948   2.25673e+08    24   2.27200e+08   2.25673e+08  1219803    0.67%
  98630 68949   2.25673e+08    24   2.27200e+08   2.25673e+08  1219810    0.67%
  98631 68950   2.25673e+08    25   2.27200e+08   2.25673e+08  1219816    0.67%
  98632 68951   2.25673e+08    23   2.27200e+08   2.25673e+08  1219817    0.67%
  98633 68952   2.25673e+08    21   2.27200e+08   2.25673e+08  1219818    0.67%
  98634 68953   2.25673e+08    26   2.27200e+08   2.25673e+08  1219844    0.67%
  98635 68954   2.25673e+08    25   2.27200e+08   2.25673e+08  1219845    0.67%
  98636 68955   2.25673e+08    27   2.27200e+08   2.25673e+08  1219849    0.67%
  98637 68956   2.25673e+08    22   2.27200e+08   2.25673e+08  1219850    0.67%
Elapsed time = 55.90 sec. (66293.90 ticks, tree = 44.12 MB, solutions = 19)
 103909 72785   2.25673e+08    21   2.27200e+08   2.25673e+08  1286499    0.67%
 103910 72786   2.25673e+08    19   2.27200e+08   2.25673e+08  1286501    0.67%
 103911 72787   2.25673e+08    19   2.27200e+08   2.25673e+08  1286502    0.67%
 103912 72788   2.25673e+08    20   2.27200e+08   2.25673e+08  1286511    0.67%
 103913 72789   2.25673e+08    20   2.27200e+08   2.25673e+08  1286526    0.67%
 103914 72790   2.25673e+08    20   2.27200e+08   2.25673e+08  1286529    0.67%
 103915 72791   2.25673e+08    21   2.27200e+08   2.25673e+08  1286533    0.67%
 103916 72792   2.25673e+08    22   2.27200e+08   2.25673e+08  1286537    0.67%
 103917 72793   2.25673e+08    22   2.27200e+08   2.25673e+08  1286538    0.67%
 103918 72794   2.25673e+08    22   2.27200e+08   2.25673e+08  1286540    0.67%
Elapsed time = 60.06 sec. (70111.47 ticks, tree = 46.38 MB, solutions = 19)
 109870 77042   2.25673e+08    20   2.27200e+08   2.25673e+08  1351349    0.67%
 109871 77043   2.25673e+08    20   2.27200e+08   2.25673e+08  1351353    0.67%
 109872 77044   2.25673e+08    20   2.27200e+08   2.25673e+08  1351381    0.67%
 109873 77043        cutoff         2.27200e+08   2.25673e+08  1351447    0.67%
 109874 77044   2.25673e+08    21   2.27200e+08   2.25673e+08  1351451    0.67%
 109875 77043        cutoff         2.27200e+08   2.25673e+08  1351540    0.67%
 109876 77042        cutoff         2.27200e+08   2.25673e+08  1351613    0.67%
 109877 77041        cutoff         2.27200e+08   2.25673e+08  1351668    0.67%
 109878 77042   2.25673e+08    23   2.27200e+08   2.25673e+08  1351716    0.67%
 109879 77043   2.25673e+08    23   2.27200e+08   2.25673e+08  1351717    0.67%
Elapsed time = 63.45 sec. (73942.69 ticks, tree = 48.87 MB, solutions = 19)
 116622 82317   2.25673e+08    19   2.27200e+08   2.25673e+08  1406352    0.67%
 116623 82318   2.25673e+08    19   2.27200e+08   2.25673e+08  1406358    0.67%
 116624 82319   2.25673e+08    20   2.27200e+08   2.25673e+08  1406373    0.67%
 116625 82320   2.25673e+08    20   2.27200e+08   2.25673e+08  1406374    0.67%
 116626 82321   2.25673e+08    19   2.27200e+08   2.25673e+08  1406376    0.67%
 116627 82322   2.25673e+08    19   2.27200e+08   2.25673e+08  1406381    0.67%
 116628 82323   2.25673e+08    22   2.27200e+08   2.25673e+08  1406386    0.67%
 116629 82324   2.25673e+08    19   2.27200e+08   2.25673e+08  1406388    0.67%
 116630 82325   2.25673e+08    19   2.27200e+08   2.25673e+08  1406390    0.67%
 116631 82326   2.25673e+08    27   2.27200e+08   2.25673e+08  1406405    0.67%
Elapsed time = 66.83 sec. (77760.42 ticks, tree = 51.96 MB, solutions = 19)
 124660 88798   2.25673e+08    25   2.27200e+08   2.25673e+08  1458155    0.67%
 124661 88799   2.25673e+08    25   2.27200e+08   2.25673e+08  1458156    0.67%
 124662 88800   2.25673e+08    24   2.27200e+08   2.25673e+08  1458159    0.67%
 124663 88801   2.25673e+08    22   2.27200e+08   2.25673e+08  1458166    0.67%
 124664 88802   2.25673e+08    24   2.27200e+08   2.25673e+08  1458174    0.67%
 124665 88803   2.25673e+08    24   2.27200e+08   2.25673e+08  1458179    0.67%
 124666 88804   2.25673e+08    24   2.27200e+08   2.25673e+08  1458180    0.67%
 124667 88805   2.25673e+08    24   2.27200e+08   2.25673e+08  1458181    0.67%
 124668 88806   2.25673e+08    24   2.27200e+08   2.25673e+08  1458182    0.67%
 124669 88807   2.25673e+08    24   2.27200e+08   2.25673e+08  1458184    0.67%
Elapsed time = 70.14 sec. (81577.88 ticks, tree = 55.80 MB, solutions = 19)
 132841 95608   2.25673e+08    31   2.27200e+08   2.25673e+08  1509321    0.67%
 132842 95609   2.25673e+08    24   2.27200e+08   2.25673e+08  1509335    0.67%
 132843 95610   2.25673e+08    23   2.27200e+08   2.25673e+08  1509336    0.67%
 132844 95611   2.25673e+08    24   2.27200e+08   2.25673e+08  1509339    0.67%
 132845 95612   2.25673e+08    24   2.27200e+08   2.25673e+08  1509345    0.67%
 132846 95613   2.25673e+08    23   2.27200e+08   2.25673e+08  1509346    0.67%
 132847 95614   2.25673e+08    21   2.27200e+08   2.25673e+08  1509349    0.67%
 132848 95615   2.25673e+08    21   2.27200e+08   2.25673e+08  1509351    0.67%
 132849 95616   2.25673e+08    24   2.27200e+08   2.25673e+08  1509362    0.67%
 132850 95617   2.25673e+08    24   2.27200e+08   2.25673e+08  1509364    0.67%
Elapsed time = 73.42 sec. (85398.11 ticks, tree = 59.83 MB, solutions = 19)
 138901 100487   2.25673e+08    27   2.27200e+08   2.25673e+08  1570041    0.67%
 138902 100488   2.25673e+08    26   2.27200e+08   2.25673e+08  1570047    0.67%
 138903 100489   2.25673e+08    25   2.27200e+08   2.25673e+08  1570068    0.67%
 138904 100490   2.25673e+08    23   2.27200e+08   2.25673e+08  1570080    0.67%
 138905 100491   2.25673e+08    24   2.27200e+08   2.25673e+08  1570081    0.67%
 138906 100492   2.25673e+08    27   2.27200e+08   2.25673e+08  1570086    0.67%
 138907 100493   2.25673e+08    27   2.27200e+08   2.25673e+08  1570091    0.67%
 138908 100494   2.25673e+08    27   2.27200e+08   2.25673e+08  1570092    0.67%
 138909 100495   2.25673e+08    26   2.27200e+08   2.25673e+08  1570095    0.67%
 138910 100496   2.25673e+08    27   2.27200e+08   2.25673e+08  1570096    0.67%
Elapsed time = 77.34 sec. (89305.04 ticks, tree = 62.65 MB, solutions = 19)
 145562 105958   2.25673e+08    24   2.27200e+08   2.25673e+08  1633380    0.67%
 145563 105959   2.25673e+08    24   2.27200e+08   2.25673e+08  1633383    0.67%
 145564 105960   2.25673e+08    25   2.27200e+08   2.25673e+08  1633386    0.67%
 145565 105961   2.25673e+08    25   2.27200e+08   2.25673e+08  1633387    0.67%
 145566 105962   2.25673e+08    25   2.27200e+08   2.25673e+08  1633390    0.67%
 145567 105963   2.25673e+08    26   2.27200e+08   2.25673e+08  1633407    0.67%
 145568 105962        cutoff         2.27200e+08   2.25673e+08  1633430    0.67%
 145569 105962   2.26854e+08    24   2.27200e+08   2.25673e+08  1633456    0.67%
 145570 105962   2.26854e+08    22   2.27200e+08   2.25673e+08  1633459    0.67%
 145571 105961   2.27189e+08    25   2.27200e+08   2.25673e+08  1633497    0.67%
Elapsed time = 80.76 sec. (93126.32 ticks, tree = 65.85 MB, solutions = 19)
 152506 111682   2.25673e+08    31   2.27200e+08   2.25673e+08  1691004    0.67%
 152507 111683   2.25673e+08    30   2.27200e+08   2.25673e+08  1691015    0.67%
 152508 111684   2.25673e+08    31   2.27200e+08   2.25673e+08  1691033    0.67%
 152509 111685   2.25673e+08    30   2.27200e+08   2.25673e+08  1691035    0.67%
 152510 111686   2.25673e+08    30   2.27200e+08   2.25673e+08  1691042    0.67%
 152511 111687   2.25673e+08    27   2.27200e+08   2.25673e+08  1691049    0.67%
 152512 111688   2.25673e+08    27   2.27200e+08   2.25673e+08  1691075    0.67%
 152513 111689   2.25673e+08    29   2.27200e+08   2.25673e+08  1691100    0.67%
 152514 111690   2.25673e+08    29   2.27200e+08   2.25673e+08  1691110    0.67%
 152515 111691   2.25673e+08    28   2.27200e+08   2.25673e+08  1691120    0.67%
Elapsed time = 84.09 sec. (96947.24 ticks, tree = 69.19 MB, solutions = 19)
 159427 116998   2.26883e+08    34   2.27200e+08   2.25673e+08  1753355    0.67%
 159428 116997        cutoff         2.27200e+08   2.25673e+08  1753356    0.67%
 159429 116996        cutoff         2.27200e+08   2.25673e+08  1753383    0.67%
 159430 116997   2.25673e+08    21   2.27200e+08   2.25673e+08  1753412    0.67%
 159431 116998   2.25673e+08    23   2.27200e+08   2.25673e+08  1753418    0.67%
 159432 116999   2.25673e+08    23   2.27200e+08   2.25673e+08  1753423    0.67%
 159433 117000   2.25673e+08    22   2.27200e+08   2.25673e+08  1753435    0.67%
 159434 116999        cutoff         2.27200e+08   2.25673e+08  1753508    0.67%
 159435 117000   2.25820e+08    27   2.27200e+08   2.25673e+08  1753581    0.67%
 159436 117000   2.25820e+08    27   2.27200e+08   2.25673e+08  1753587    0.67%
Elapsed time = 87.48 sec. (100774.43 ticks, tree = 72.31 MB, solutions = 19)
 165501 121480   2.25673e+08    27   2.27200e+08   2.25673e+08  1805581    0.67%
 165502 121481   2.25673e+08    27   2.27200e+08   2.25673e+08  1805583    0.67%
 165503 121482   2.25673e+08    21   2.27200e+08   2.25673e+08  1805591    0.67%
 165504 121483   2.25673e+08    22   2.27200e+08   2.25673e+08  1805592    0.67%
 165505 121484   2.25673e+08    24   2.27200e+08   2.25673e+08  1805598    0.67%
 165506 121485   2.25673e+08    25   2.27200e+08   2.25673e+08  1805603    0.67%
 165507 121486   2.25673e+08    22   2.27200e+08   2.25673e+08  1805606    0.67%
 165508 121487   2.25673e+08    22   2.27200e+08   2.25673e+08  1805608    0.67%
 165509 121488   2.25673e+08    22   2.27200e+08   2.25673e+08  1805609    0.67%
 165510 121489   2.25673e+08    27   2.27200e+08   2.25673e+08  1805616    0.67%
Elapsed time = 91.10 sec. (104964.49 ticks, tree = 74.93 MB, solutions = 19)
*169901+116656                       2.26531e+08   2.25673e+08             0.38%
 170214 116912   2.25673e+08    25   2.26531e+08   2.25673e+08  1840792    0.38%
 170215 116913   2.25673e+08    25   2.26531e+08   2.25673e+08  1840794    0.38%
 170216 116914   2.25673e+08    25   2.26531e+08   2.25673e+08  1840796    0.38%
 170217 116915   2.25673e+08    24   2.26531e+08   2.25673e+08  1840797    0.38%
 170218 116916   2.25673e+08    25   2.26531e+08   2.25673e+08  1840817    0.38%
 170219 116917   2.25673e+08    28   2.26531e+08   2.25673e+08  1840826    0.38%
 170220 116918   2.25673e+08    25   2.26531e+08   2.25673e+08  1840828    0.38%
 170221 116919   2.25673e+08    35   2.26531e+08   2.25673e+08  1840850    0.38%
 170222 116920   2.25673e+08    33   2.26531e+08   2.25673e+08  1840851    0.38%
 170223 116921   2.25673e+08    33   2.26531e+08   2.25673e+08  1840858    0.38%
Elapsed time = 94.39 sec. (108783.50 ticks, tree = 71.84 MB, solutions = 20)
 176524 122120        cutoff         2.26531e+08   2.25673e+08  1893277    0.38%
 176525 122119        cutoff         2.26531e+08   2.25673e+08  1893338    0.38%
 176526 122118    infeasible         2.26531e+08   2.25673e+08  1893338    0.38%
 176527 122119   2.25673e+08    22   2.26531e+08   2.25673e+08  1893385    0.38%
 176528 122120   2.25673e+08    23   2.26531e+08   2.25673e+08  1893388    0.38%
 176529 122121   2.25673e+08    28   2.26531e+08   2.25673e+08  1893393    0.38%
 176530 122122   2.25673e+08    22   2.26531e+08   2.25673e+08  1893394    0.38%
 176531 122123   2.25673e+08    24   2.26531e+08   2.25673e+08  1893404    0.38%
 176532 122124   2.25673e+08    25   2.26531e+08   2.25673e+08  1893406    0.38%
 176533 122125   2.25673e+08    26   2.26531e+08   2.25673e+08  1893418    0.38%
Elapsed time = 97.71 sec. (112605.83 ticks, tree = 74.86 MB, solutions = 20)

GUB cover cuts applied:  1
Cover cuts applied:  463
Mixed integer rounding cuts applied:  9
Gomory fractional cuts applied:  4

Root node processing (before b&c):
  Real time             =    0.06 sec. (60.59 ticks)
Sequential b&c:
  Real time             =   99.94 sec. (115148.73 ticks)
                          ------------
Total (root+branch&cut) =  100.00 sec. (115209.31 ticks)

Solution pool: 20 solutions saved.

MIP - Time limit exceeded, integer feasible:  Objective =  2.2653141200e+08
Current MIP best bound =  2.2567326400e+08 (gap = 858148, 0.38%)
Solution time =  100.00 sec.  Iterations = 1932930  Nodes = 181880 (126688)
Deterministic time = 115209.31 ticks  (1152.09 ticks/sec)


Incumbent solution written to file '/tmp/tmpD50K14.cplex.sol'.
